&CONTROL
  calculation = 'scf'
  etot_conv_thr =   5.0000000000d-05
  forc_conv_thr =   1.0000000000d-04
  outdir = './'
  prefix = 'BCO'
  pseudo_dir = './pseudo/'
  tprnfor = .true.
  tstress = .true.
  verbosity = 'high'
/
&SYSTEM
   a           =  4.46443e+00
    degauss     =  1.00000e-02
    ecutrho     =  400
    ecutwfc     =  40
    ibrav       = 1
    nat         = 5
    ntyp        = 3
    occupations = "smearing"
    smearing    = "gaussian"
  nosym = .false.
 
/
&ELECTRONS
  conv_thr =   1.0000000000d-07
  electron_maxstep = 80
  mixing_beta =   4.0000000000d-01
/
ATOMIC_SPECIES
Ba     137.327 Ba.pbesol-spn-kjpaw_psl.1.0.0.UPF
Ca     40.078 ca_pbesol_v1.uspp.F.UPF
O      15.9994 O.pbesol-n-kjpaw_psl.0.1.UPF
ATOMIC_POSITIONS {angstrom}
Ba      0.000000   0.000000   0.000000
Ca      2.232213   2.232213   2.232213
O       2.232213   2.232213   0.000000
O       2.232213   0.000000   2.232213
O       0.000000   2.232213   2.232213

K_POINTS automatic
30 30 30 1 1 1
